peakDumbCharging = 7400; 
Machine = anon_enum(16); 
machineSpeed = [3700,3700,3700,3700,3700,3700,3700,3700,3700,3700,3700,3700,3700,3700,3700,3700]; 
machineLoad = [3700,3700,3700,3700,3700,3700,3700,3700,3700,3700,3700,3700,3700,3700,3700,3700]; 
Car = anon_enum(7); 
demandCar = [32800,4080,12080,5680,3240,20360,19240]; 
arrivalCar = [64,62,57,53,51,43,36]; 
departureCar = [75,65,61,56,54,51,42]; 
